
Gurobi 7.0.1 (win64) logging started 03/26/17 20:37:58

Changed value of parameter LogFile to ProvinceRunOutputs/log_prov18.log
   Prev: gurobi.log  Default: 
Optimize a model with 3396 rows, 89839 columns and 180112 nonzeros
Variable types: 0 continuous, 89839 integer (89839 binary)
Coefficient statistics:
  Matrix range     [1e+00, 1e+05]
  Objective range  [4e-02, 3e+02]
  Bounds range     [1e+00, 1e+00]
  RHS range        [1e+00, 6e+00]
Found heuristic solution: objective 292391
Presolve removed 631 rows and 11196 columns
Presolve time: 0.50s
Presolved: 2765 rows, 78643 columns, 157400 nonzeros

MIP start did not produce a new incumbent solution
MIP start violates constraint R0 by 419999.000000000

Variable types: 0 continuous, 78643 integer (78643 binary)

Root relaxation: objective 6.789165e+04, 2578 iterations, 0.05 seconds

    Nodes    |    Current Node    |     Objective Bounds      |     Work
 Expl Unexpl |  Obj  Depth IntInf | Incumbent    BestBd   Gap | It/Node Time

     0     0 67891.6451    0   40 292391.249 67891.6451  76.8%     -    0s
H    0     0                    101861.90934 67891.6451  33.3%     -    2s
H    0     0                    94023.397983 67891.6451  27.8%     -    2s
     0     0 69808.7682    0  624 94023.3980 69808.7682  25.8%     -    3s
H    0     0                    82705.675543 69808.7682  15.6%     -    4s
     0     0 69808.7682    0  626 82705.6755 69808.7682  15.6%     -    4s
     0     0 73822.1364    0 1313 82705.6755 73822.1364  10.7%     -    5s
     0     0 73823.6540    0 1314 82705.6755 73823.6540  10.7%     -    5s
     0     0 74925.4634    0 1903 82705.6755 74925.4634  9.41%     -    5s
     0     0 75012.4688    0 1923 82705.6755 75012.4688  9.30%     -    5s
     0     0 75570.4755    0 2194 82705.6755 75570.4755  8.63%     -    6s
     0     0 75593.6453    0 1848 82705.6755 75593.6453  8.60%     -    6s
     0     0 75772.8463    0 2083 82705.6755 75772.8463  8.38%     -    6s
     0     0 75774.4430    0 2319 82705.6755 75774.4430  8.38%     -    6s
     0     0 75915.0868    0 2397 82705.6755 75915.0868  8.21%     -    7s
     0     0 75915.0868    0 2397 82705.6755 75915.0868  8.21%     -    7s
H    0     0                    78743.866394 75915.0868  3.59%     -    7s
     0     2 75915.0868    0 2397 78743.8664 75915.0868  3.59%     -    8s
*   20     8              11    76009.766196 75924.3905  0.11%  73.0    8s

Cutting planes:
  Cover: 85
  Clique: 2532
  MIR: 57
  Zero half: 1

Explored 28 nodes (9013 simplex iterations) in 8.89 seconds
Thread count was 4 (of 4 available processors)

Solution count 6: 76009.8 78743.9 82705.7 ... 292391
Pool objective bound 76009.8

Optimal solution found (tolerance 1.00e-04)
Best objective 7.600976619641e+04, best bound 7.600976619641e+04, gap 0.0000%
Optimize a model with 3860 rows, 89839 columns and 181504 nonzeros
Variable types: 0 continuous, 89839 integer (89839 binary)
Coefficient statistics:
  Matrix range     [1e+00, 1e+05]
  Objective range  [4e-02, 3e+02]
  Bounds range     [1e+00, 1e+00]
  RHS range        [1e+00, 6e+00]
Found heuristic solution: objective 213498
Presolve removed 631 rows and 11196 columns
Presolve time: 0.42s
Presolved: 3229 rows, 78643 columns, 158792 nonzeros

MIP start did not produce a new incumbent solution
MIP start violates constraint R0 by 419999.000000000

Variable types: 0 continuous, 78643 integer (78643 binary)

Root relaxation: objective 6.789165e+04, 2581 iterations, 0.04 seconds

    Nodes    |    Current Node    |     Objective Bounds      |     Work
 Expl Unexpl |  Obj  Depth IntInf | Incumbent    BestBd   Gap | It/Node Time

     0     0 67891.6451    0   40 213498.466 67891.6451  68.2%     -    0s
H    0     0                    83115.110215 67891.6451  18.3%     -    0s
H    0     0                    82984.294614 67891.6451  18.2%     -    1s
H    0     0                    80159.105661 67891.6451  15.3%     -    1s
     0     0 72271.1294    0  991 80159.1057 72271.1294  9.84%     -    2s
     0     0 72271.1299    0  993 80159.1057 72271.1299  9.84%     -    2s
     0     0 74159.8890    0 2252 80159.1057 74159.8890  7.48%     -    3s
     0     0 74160.8506    0 2251 80159.1057 74160.8506  7.48%     -    3s
     0     0 75458.2651    0 3088 80159.1057 75458.2651  5.86%     -    4s
H    0     0                    76111.696359 75458.2651  0.86%     -    4s
     0     0 75472.4227    0 3098 76111.6964 75472.4227  0.84%     -    4s
     0     0 75735.1623    0 2328 76111.6964 75735.1623  0.49%     -    5s
H    0     0                    76009.766196 75735.1623  0.36%     -    6s
     0     0     cutoff    0      76009.7662 76009.7662  0.00%     -    6s

Explored 0 nodes (13019 simplex iterations) in 6.43 seconds
Thread count was 4 (of 4 available processors)

Solution count 6: 76009.8 76111.7 80159.1 ... 213498
Pool objective bound 76009.8

Optimal solution found (tolerance 1.00e-04)
Best objective 7.600976619641e+04, best bound 7.600976619641e+04, gap 0.0000%
Optimize a model with 4036 rows, 89839 columns and 182032 nonzeros
Variable types: 0 continuous, 89839 integer (89839 binary)
Coefficient statistics:
  Matrix range     [1e+00, 1e+05]
  Objective range  [4e-02, 3e+02]
  Bounds range     [1e+00, 1e+00]
  RHS range        [1e+00, 6e+00]
Found heuristic solution: objective 207177
Presolve removed 631 rows and 11196 columns
Presolve time: 0.43s
Presolved: 3405 rows, 78643 columns, 159320 nonzeros

MIP start did not produce a new incumbent solution
MIP start violates constraint R0 by 419999.000000000

Variable types: 0 continuous, 78643 integer (78643 binary)

Root relaxation: objective 6.789286e+04, 2587 iterations, 0.03 seconds

    Nodes    |    Current Node    |     Objective Bounds      |     Work
 Expl Unexpl |  Obj  Depth IntInf | Incumbent    BestBd   Gap | It/Node Time

     0     0 67892.8625    0   40 207177.488 67892.8625  67.2%     -    0s
H    0     0                    98246.976723 67892.8625  30.9%     -    1s
H    0     0                    92683.144033 67892.8625  26.7%     -    1s
H    0     0                    77961.484799 67892.8625  12.9%     -    2s
     0     0 72673.8263    0 1488 77961.4848 72673.8263  6.78%     -    2s
     0     0 72673.8267    0 1490 77961.4848 72673.8267  6.78%     -    3s
     0     0 74292.6701    0 2098 77961.4848 74292.6701  4.71%     -    3s
     0     0 74610.0295    0 2365 77961.4848 74610.0295  4.30%     -    4s
     0     0 75367.4830    0 3168 77961.4848 75367.4830  3.33%     -    5s
     0     0 75387.1874    0 3183 77961.4848 75387.1874  3.30%     -    5s
     0     0 75686.1286    0 1961 77961.4848 75686.1286  2.92%     -    5s
     0     0 75713.6417    0 3293 77961.4848 75713.6417  2.88%     -    6s
     0     0 75861.3289    0 3339 77961.4848 75861.3289  2.69%     -    6s
     0     0 75869.2451    0 2525 77961.4848 75869.2451  2.68%     -    6s
     0     0 75928.6702    0 3457 77961.4848 75928.6702  2.61%     -    6s
     0     0 75928.6702    0 3455 77961.4848 75928.6702  2.61%     -    8s
H    0     0                    76011.111049 75928.6702  0.11%     -    8s
     0     0     cutoff    0      76011.1110 76011.1110  0.00%     -   11s

Explored 0 nodes (12467 simplex iterations) in 11.06 seconds
Thread count was 4 (of 4 available processors)

Solution count 5: 76011.1 77961.5 92683.1 ... 207177
Pool objective bound 76011.1

Optimal solution found (tolerance 1.00e-04)
Best objective 7.601111104909e+04, best bound 7.601111104909e+04, gap 0.0000%
